p cnf 505 1415
a 1 2 3 4 9 10 11 12 13 14 15 16 17 18 19 20 21 22 23 24 25 26 27 28 29 30 31 32 33 34 35 36 37 38 39 40 41 42 43 44 45 46 47 48 49 50 51 52 53 54 55 56 57 58 59 60 61 62 0
e 5 6 7 8 63 64 65 66 67 68 69 70 71 72 73 74 75 76 77 78 79 80 81 82 83 84 85 86 87 88 89 90 91 92 93 94 95 96 97 98 99 100 101 102 103 104 105 106 107 108 109 110 111 112 113 114 115 116 117 118 119 120 121 122 123 124 125 126 127 128 129 130 131 132 133 134 135 136 137 138 139 140 141 142 143 144 145 146 147 148 149 150 151 152 153 154 155 156 157 158 159 160 161 162 163 164 165 166 167 168 169 170 171 172 173 174 175 176 177 178 179 180 181 182 183 184 185 186 187 188 189 190 191 192 193 194 195 196 197 198 199 200 201 202 203 204 205 206 207 208 209 210 211 212 213 214 215 216 217 218 219 220 221 222 223 224 225 226 227 228 229 230 231 232 233 234 235 236 237 238 239 240 241 242 243 244 245 246 247 248 249 250 251 252 253 254 255 256 257 258 259 260 261 262 263 264 265 266 267 268 269 270 271 272 273 274 275 276 277 278 279 280 281 282 283 284 285 286 287 288 289 290 291 292 293 294 295 296 297 298 299 300 301 302 303 304 305 306 307 308 309 310 311 312 313 314 315 316 317 318 319 320 321 322 323 324 325 326 327 328 329 330 331 332 333 334 335 336 337 338 339 340 341 342 343 344 345 346 347 348 349 350 351 352 353 354 355 356 357 358 359 360 361 362 363 364 365 366 367 368 369 370 371 372 373 374 375 376 377 378 379 380 381 382 383 384 385 386 387 388 389 390 391 392 393 394 395 396 397 398 399 400 401 402 403 404 405 406 407 408 409 410 411 412 413 414 415 416 417 418 419 420 421 422 423 424 425 426 427 428 429 430 431 432 433 434 435 436 437 438 439 440 441 442 443 444 445 446 447 448 449 450 451 452 453 454 455 456 457 458 459 460 461 462 463 464 465 466 467 468 469 470 471 472 473 474 475 476 477 478 479 480 481 482 483 484 485 486 487 488 489 490 491 492 493 494 495 496 497 498 499 500 501 502 503 504 505 0
-505 0
505 -411 0
505 -460 0
505 -489 0
505 -504 0
3 2 1 -410 -503 504 0
503 -496 0
503 -502 0
-407 -457 -486 -501 -236 502 0
501 -500 0
501 -253 0
501 -254 0
501 -255 0
501 -256 0
-499 -498 -497 500 0
499 -268 0
499 -318 0
499 -319 0
499 -271 0
499 -39 0
499 -38 0
499 -37 0
499 -36 0
499 -35 0
499 -34 0
499 -33 0
498 -263 0
498 -264 0
498 -315 0
498 -316 0
498 -30 0
498 -29 0
498 -28 0
498 -27 0
498 -26 0
498 -25 0
498 -24 0
497 -258 0
497 -259 0
497 -312 0
497 -313 0
497 -21 0
497 -20 0
497 -19 0
497 -18 0
497 -17 0
497 -16 0
497 -15 0
-5 -6 -7 -8 -495 496 0
495 -494 0
495 -472 0
495 -433 0
495 -233 0
-82 -81 -80 -79 -493 494 0
493 -490 0
493 -491 0
493 -492 0
39 38 33 35 37 36 34 -97 -145 -144 -94 492 0
25 24 28 30 29 27 26 -142 -141 -90 -89 491 0
21 20 19 18 17 16 15 -139 -138 -85 -84 490 0
4 2 1 -410 -488 489 0
488 -474 0
488 -487 0
-486 -389 -449 -479 -236 487 0
486 -482 0
486 -485 0
-395 -394 -393 -484 -483 485 0
484 -326 0
484 -403 0
484 -253 0
484 -254 0
484 -255 0
484 -256 0
483 -304 0
483 -454 0
483 -253 0
483 -254 0
483 -255 0
483 -256 0
-382 -481 -381 -380 -480 482 0
481 -378 0
481 -273 0
481 -253 0
481 -254 0
481 -255 0
481 -256 0
480 -445 0
480 -309 0
480 -253 0
480 -254 0
480 -255 0
480 -256 0
479 -478 0
479 -253 0
479 -254 0
479 -255 0
479 -256 0
-477 -476 -475 478 0
477 -291 0
477 -301 0
477 -292 0
477 -302 0
477 -53 0
477 -49 0
477 -39 0
477 -38 0
477 -37 0
477 -36 0
477 -33 0
476 -298 0
476 -288 0
476 -299 0
476 -289 0
476 -52 0
476 -46 0
476 -30 0
476 -29 0
476 -28 0
476 -27 0
476 -24 0
475 -295 0
475 -285 0
475 -296 0
475 -286 0
475 -51 0
475 -43 0
475 -21 0
475 -20 0
475 -19 0
475 -18 0
475 -15 0
-5 -6 -7 -8 -473 474 0
473 -465 0
473 -425 0
473 -215 0
473 -472 0
-471 -468 472 0
471 -469 0
471 -470 0
471 -219 0
471 -220 0
471 -221 0
-82 -81 -80 -79 -229 -152 470 0
-82 -81 -80 -79 -430 -130 469 0
468 -466 0
468 -206 0
468 -207 0
468 -467 0
468 -208 0
-82 -81 -80 -79 -99 -204 467 0
-82 -81 -80 -79 -135 -421 466 0
-82 -81 -80 -79 -464 465 0
464 -461 0
464 -462 0
464 -463 0
39 38 33 37 36 53 49 -128 -118 -127 -117 463 0
24 28 30 29 27 52 46 -115 -125 -124 -114 462 0
21 20 19 18 15 51 43 -112 -122 -111 -121 461 0
4 3 1 -410 -459 460 0
459 -435 0
459 -458 0
-457 -449 -370 -440 -236 458 0
457 -452 0
457 -456 0
-402 -401 -400 -455 -453 456 0
455 -454 0
455 -283 0
455 -253 0
455 -254 0
455 -255 0
455 -256 0
-405 -399 -398 454 0
453 -396 0
453 -338 0
453 -253 0
453 -254 0
453 -255 0
453 -256 0
-359 -451 -358 -357 -450 452 0
451 -442 0
451 -309 0
451 -253 0
451 -254 0
451 -255 0
451 -256 0
450 -351 0
450 -294 0
450 -253 0
450 -254 0
450 -255 0
450 -256 0
449 -444 0
449 -448 0
-377 -376 -375 -447 -446 448 0
447 -383 0
447 -321 0
447 -253 0
447 -254 0
447 -255 0
447 -256 0
446 -445 0
446 -283 0
446 -253 0
446 -254 0
446 -255 0
446 -256 0
-387 -386 -385 445 0
-350 -349 -348 -443 -441 444 0
443 -442 0
443 -304 0
443 -253 0
443 -254 0
443 -255 0
443 -256 0
-368 -367 -366 442 0
441 -360 0
441 -331 0
441 -253 0
441 -254 0
441 -255 0
441 -256 0
440 -439 0
440 -253 0
440 -254 0
440 -255 0
440 -256 0
-438 -437 -436 439 0
438 -269 0
438 -280 0
438 -281 0
438 -270 0
438 -53 0
438 -49 0
438 -39 0
438 -38 0
438 -37 0
438 -36 0
438 -33 0
437 -265 0
437 -266 0
437 -277 0
437 -278 0
437 -52 0
437 -46 0
437 -30 0
437 -29 0
437 -28 0
437 -27 0
437 -24 0
436 -260 0
436 -261 0
436 -274 0
436 -51 0
436 -43 0
436 -275 0
436 -21 0
436 -20 0
436 -19 0
436 -18 0
436 -15 0
-5 -6 -7 -8 -434 435 0
434 -416 0
434 -196 0
434 -425 0
434 -433 0
-432 -428 433 0
432 -429 0
432 -431 0
432 -226 0
432 -227 0
432 -228 0
-82 -81 -80 -79 -109 -430 431 0
430 -224 0
430 -225 0
430 -231 0
-82 -81 -80 -79 -164 -222 429 0
428 -426 0
428 -183 0
428 -184 0
428 -427 0
428 -185 0
-82 -81 -80 -79 -135 -418 427 0
-82 -81 -80 -79 -120 -177 426 0
-424 -420 425 0
424 -422 0
424 -423 0
424 -201 0
424 -202 0
424 -203 0
-82 -81 -80 -79 -147 -209 423 0
-82 -81 -80 -79 -109 -421 422 0
421 -211 0
421 -212 0
421 -213 0
420 -417 0
420 -419 0
420 -174 0
420 -175 0
420 -176 0
-82 -81 -80 -79 -130 -418 419 0
418 -192 0
418 -193 0
418 -194 0
-82 -81 -80 -79 -157 -186 417 0
-82 -81 -80 -79 -415 416 0
415 -412 0
415 -413 0
415 -414 0
39 38 33 37 36 53 49 -96 -107 -106 -95 414 0
24 28 30 29 27 52 -104 46 -103 -92 -91 413 0
21 -101 20 19 18 15 51 43 -100 -87 -86 412 0
4 3 2 -410 -409 411 0
410 -4 0
410 -3 0
410 -2 0
410 -1 0
409 -235 0
409 -408 0
-407 -389 -370 -257 -236 408 0
407 -392 0
407 -406 0
-405 -404 -399 -398 -397 406 0
405 -364 0
405 -253 0
405 -254 0
405 -255 0
405 -256 0
404 -347 0
404 -403 0
404 -253 0
404 -254 0
404 -255 0
404 -256 0
-402 -401 -400 403 0
402 -321 0
402 -253 0
402 -254 0
402 -255 0
402 -256 0
401 -283 0
401 -364 0
401 -253 0
401 -254 0
401 -255 0
401 -256 0
400 -338 0
400 -331 0
400 -253 0
400 -254 0
400 -255 0
400 -256 0
399 -347 0
399 -321 0
399 -253 0
399 -254 0
399 -255 0
399 -256 0
398 -355 0
398 -331 0
398 -253 0
398 -254 0
398 -255 0
398 -256 0
397 -396 0
397 -355 0
397 -253 0
397 -254 0
397 -255 0
397 -256 0
-395 -394 -393 396 0
395 -331 0
395 -253 0
395 -254 0
395 -255 0
395 -256 0
394 -326 0
394 -321 0
394 -253 0
394 -254 0
394 -255 0
394 -256 0
393 -304 0
393 -364 0
393 -253 0
393 -254 0
393 -255 0
393 -256 0
-310 -391 -390 -305 -284 392 0
391 -273 0
391 -372 0
391 -253 0
391 -254 0
391 -255 0
391 -256 0
390 -294 0
390 -334 0
390 -253 0
390 -254 0
390 -255 0
390 -256 0
389 -374 0
389 -388 0
-387 -386 -385 -384 -379 388 0
387 -355 0
387 -253 0
387 -254 0
387 -255 0
387 -256 0
386 -294 0
386 -364 0
386 -253 0
386 -254 0
386 -255 0
386 -256 0
385 -347 0
385 -338 0
385 -253 0
385 -254 0
385 -255 0
385 -256 0
384 -383 0
384 -364 0
384 -253 0
384 -254 0
384 -255 0
384 -256 0
-382 -381 -380 383 0
382 -294 0
382 -253 0
382 -254 0
382 -255 0
382 -256 0
381 -273 0
381 -338 0
381 -253 0
381 -254 0
381 -255 0
381 -256 0
380 -309 0
380 -355 0
380 -253 0
380 -254 0
380 -255 0
380 -256 0
379 -378 0
379 -347 0
379 -253 0
379 -254 0
379 -255 0
379 -256 0
-377 -376 -375 378 0
377 -338 0
377 -253 0
377 -254 0
377 -255 0
377 -256 0
376 -294 0
376 -321 0
376 -253 0
376 -254 0
376 -255 0
376 -256 0
375 -355 0
375 -283 0
375 -253 0
375 -254 0
375 -255 0
375 -256 0
-333 -332 -327 -373 -371 374 0
373 -372 0
373 -326 0
373 -253 0
373 -254 0
373 -255 0
373 -256 0
-342 -341 -340 372 0
371 -311 0
371 -331 0
371 -253 0
371 -254 0
371 -255 0
371 -256 0
370 -343 0
370 -369 0
-368 -367 -366 -365 -356 369 0
368 -347 0
368 -253 0
368 -254 0
368 -255 0
368 -256 0
367 -273 0
367 -364 0
367 -253 0
367 -254 0
367 -255 0
367 -256 0
366 -326 0
366 -355 0
366 -253 0
366 -254 0
366 -255 0
366 -256 0
365 -360 0
365 -364 0
365 -253 0
365 -254 0
365 -255 0
365 -256 0
-363 -362 -361 364 0
363 -318 0
363 -248 0
363 -249 0
363 -319 0
363 -62 0
363 -53 0
363 -48 0
363 -39 0
363 -38 0
363 -37 0
363 -35 0
362 -315 0
362 -244 0
362 -245 0
362 -316 0
362 -61 0
362 -52 0
362 -45 0
362 -30 0
362 -29 0
362 -28 0
362 -26 0
361 -312 0
361 -313 0
361 -239 0
361 -60 0
361 -51 0
361 -42 0
361 -240 0
361 -21 0
361 -20 0
361 -19 0
361 -17 0
-359 -358 -357 360 0
359 -273 0
359 -253 0
359 -254 0
359 -255 0
359 -256 0
358 -309 0
358 -347 0
358 -253 0
358 -254 0
358 -255 0
358 -256 0
357 -294 0
357 -326 0
357 -253 0
357 -254 0
357 -255 0
357 -256 0
356 -351 0
356 -355 0
356 -253 0
356 -254 0
356 -255 0
356 -256 0
-354 -353 -352 355 0
354 -291 0
354 -248 0
354 -249 0
354 -292 0
354 -62 0
354 -53 0
354 -49 0
354 -48 0
354 -39 0
354 -38 0
354 -37 0
353 -244 0
353 -245 0
353 -288 0
353 -289 0
353 -61 0
353 -52 0
353 -46 0
353 -45 0
353 -30 0
353 -29 0
353 -28 0
352 -285 0
352 -286 0
352 -239 0
352 -60 0
352 -51 0
352 -43 0
352 -42 0
352 -240 0
352 -21 0
352 -20 0
352 -19 0
-350 -349 -348 351 0
350 -326 0
350 -253 0
350 -254 0
350 -255 0
350 -256 0
349 -273 0
349 -331 0
349 -253 0
349 -254 0
349 -255 0
349 -256 0
348 -304 0
348 -347 0
348 -253 0
348 -254 0
348 -255 0
348 -256 0
-346 -345 -344 347 0
346 -269 0
346 -248 0
346 -249 0
346 -270 0
346 -62 0
346 -56 0
346 -53 0
346 -49 0
346 -48 0
346 -38 0
346 -37 0
345 -265 0
345 -244 0
345 -245 0
345 -266 0
345 -61 0
345 -55 0
345 -52 0
345 -46 0
345 -45 0
345 -29 0
345 -28 0
344 -260 0
344 -261 0
344 -239 0
344 -60 0
344 -54 0
344 -51 0
344 -43 0
344 -42 0
344 -240 0
344 -20 0
344 -19 0
-342 -341 -340 -339 -322 343 0
342 -283 0
342 -253 0
342 -254 0
342 -255 0
342 -256 0
341 -309 0
341 -321 0
341 -253 0
341 -254 0
341 -255 0
341 -256 0
340 -304 0
340 -338 0
340 -253 0
340 -254 0
340 -255 0
340 -256 0
339 -334 0
339 -338 0
339 -253 0
339 -254 0
339 -255 0
339 -256 0
-337 -336 -335 338 0
337 -291 0
337 -280 0
337 -281 0
337 -292 0
337 -56 0
337 -53 0
337 -49 0
337 -48 0
337 -38 0
337 -37 0
337 -36 0
336 -288 0
336 -289 0
336 -277 0
336 -278 0
336 -55 0
336 -52 0
336 -46 0
336 -45 0
336 -29 0
336 -28 0
336 -27 0
335 -285 0
335 -286 0
335 -274 0
335 -54 0
335 -51 0
335 -43 0
335 -42 0
335 -275 0
335 -20 0
335 -19 0
335 -18 0
-333 -332 -327 334 0
333 -304 0
333 -253 0
333 -254 0
333 -255 0
333 -256 0
332 -309 0
332 -331 0
332 -253 0
332 -254 0
332 -255 0
332 -256 0
-330 -329 -328 331 0
330 -318 0
330 -301 0
330 -319 0
330 -302 0
330 -56 0
330 -53 0
330 -48 0
330 -38 0
330 -37 0
330 -36 0
330 -35 0
329 -315 0
329 -298 0
329 -299 0
329 -316 0
329 -55 0
329 -52 0
329 -45 0
329 -29 0
329 -28 0
329 -27 0
329 -26 0
328 -295 0
328 -312 0
328 -313 0
328 -296 0
328 -54 0
328 -51 0
328 -42 0
328 -20 0
328 -19 0
328 -18 0
328 -17 0
327 -326 0
327 -283 0
327 -253 0
327 -254 0
327 -255 0
327 -256 0
-325 -324 -323 326 0
325 -269 0
325 -301 0
325 -270 0
325 -302 0
325 -53 0
325 -50 0
325 -49 0
325 -48 0
325 -39 0
325 -37 0
325 -36 0
324 -265 0
324 -298 0
324 -299 0
324 -266 0
324 -52 0
324 -47 0
324 -46 0
324 -45 0
324 -30 0
324 -28 0
324 -27 0
323 -260 0
323 -295 0
323 -261 0
323 -296 0
323 -51 0
323 -44 0
323 -43 0
323 -42 0
323 -21 0
323 -19 0
323 -18 0
322 -311 0
322 -321 0
322 -253 0
322 -254 0
322 -255 0
322 -256 0
-320 -317 -314 321 0
320 -280 0
320 -281 0
320 -318 0
320 -319 0
320 -53 0
320 -48 0
320 -39 0
320 -38 0
320 -37 0
320 -36 0
320 -35 0
-5 -41 319 0
5 -40 318 0
317 -315 0
317 -316 0
317 -277 0
317 -278 0
317 -52 0
317 -45 0
317 -30 0
317 -29 0
317 -28 0
317 -27 0
317 -26 0
-5 -32 316 0
-31 5 315 0
314 -312 0
314 -313 0
314 -274 0
314 -51 0
314 -42 0
314 -275 0
314 -21 0
314 -20 0
314 -19 0
314 -18 0
314 -17 0
-5 -23 313 0
-22 5 312 0
-310 -305 -284 311 0
310 -309 0
310 -253 0
310 -254 0
310 -255 0
310 -256 0
-308 -307 -306 309 0
308 -268 0
308 -247 0
308 -250 0
308 -271 0
308 -59 0
308 -49 0
308 -48 0
308 -39 0
308 -38 0
308 -36 0
308 -34 0
307 -263 0
307 -264 0
307 -242 0
307 -243 0
307 -58 0
307 -46 0
307 -45 0
307 -30 0
307 -29 0
307 -27 0
307 -25 0
306 -258 0
306 -259 0
306 -237 0
306 -238 0
306 -57 0
306 -43 0
306 -42 0
306 -21 0
306 -20 0
306 -18 0
306 -16 0
305 -294 0
305 -304 0
305 -253 0
305 -254 0
305 -255 0
305 -256 0
-303 -300 -297 304 0
303 -247 0
303 -301 0
303 -250 0
303 -302 0
303 -59 0
303 -53 0
303 -49 0
303 -48 0
303 -39 0
303 -38 0
303 -36 0
-6 -14 302 0
-11 6 301 0
300 -242 0
300 -243 0
300 -298 0
300 -299 0
300 -58 0
300 -52 0
300 -46 0
300 -45 0
300 -30 0
300 -29 0
300 -27 0
-6 -12 299 0
-10 6 298 0
297 -295 0
297 -237 0
297 -238 0
297 -296 0
297 -57 0
297 -51 0
297 -43 0
297 -42 0
297 -21 0
297 -20 0
297 -18 0
-9 6 296 0
-6 -13 295 0
-293 -290 -287 294 0
293 -268 0
293 -291 0
293 -292 0
293 -271 0
293 -50 0
293 -49 0
293 -48 0
293 -39 0
293 -37 0
293 -36 0
293 -34 0
-6 -41 292 0
6 -40 291 0
290 -263 0
290 -264 0
290 -288 0
290 -289 0
290 -47 0
290 -46 0
290 -45 0
290 -30 0
290 -28 0
290 -27 0
290 -25 0
-6 -32 289 0
-31 6 288 0
287 -258 0
287 -259 0
287 -285 0
287 -286 0
287 -44 0
287 -43 0
287 -42 0
287 -21 0
287 -19 0
287 -18 0
287 -16 0
-22 6 286 0
-6 -23 285 0
284 -273 0
284 -283 0
284 -253 0
284 -254 0
284 -255 0
284 -256 0
-282 -279 -276 283 0
282 -247 0
282 -280 0
282 -281 0
282 -250 0
282 -59 0
282 -53 0
282 -50 0
282 -49 0
282 -48 0
282 -39 0
282 -36 0
-7 -14 281 0
-11 7 280 0
279 -242 0
279 -243 0
279 -277 0
279 -278 0
279 -58 0
279 -52 0
279 -47 0
279 -46 0
279 -45 0
279 -30 0
279 -27 0
-10 7 278 0
-7 -12 277 0
276 -237 0
276 -238 0
276 -274 0
276 -57 0
276 -51 0
276 -44 0
276 -43 0
276 -42 0
276 -275 0
276 -21 0
276 -18 0
-7 -13 275 0
-9 7 274 0
-272 -267 -262 273 0
272 -268 0
272 -269 0
272 -270 0
272 -271 0
272 -49 0
272 -48 0
272 -39 0
272 -38 0
272 -37 0
272 -36 0
272 -34 0
-5 -14 271 0
-7 -41 270 0
7 -40 269 0
-11 5 268 0
267 -263 0
267 -264 0
267 -265 0
267 -266 0
267 -46 0
267 -45 0
267 -30 0
267 -29 0
267 -28 0
267 -27 0
267 -25 0
-7 -32 266 0
-31 7 265 0
-5 -12 264 0
-10 5 263 0
262 -258 0
262 -259 0
262 -260 0
262 -261 0
262 -43 0
262 -42 0
262 -21 0
262 -20 0
262 -19 0
262 -18 0
262 -16 0
-7 -23 261 0
-22 7 260 0
-5 -13 259 0
-9 5 258 0
257 -252 0
257 -253 0
257 -254 0
257 -255 0
257 -256 0
-10 9 256 0
-11 10 255 0
-13 12 254 0
-12 14 253 0
-251 -246 -241 252 0
251 -247 0
251 -248 0
251 -249 0
251 -250 0
251 -62 0
251 -59 0
251 -53 0
251 -49 0
251 -39 0
251 -38 0
251 -33 0
-8 -41 250 0
-8 -14 249 0
-11 8 248 0
8 -40 247 0
246 -242 0
246 -243 0
246 -244 0
246 -245 0
246 -61 0
246 -58 0
246 -52 0
246 -46 0
246 -30 0
246 -29 0
246 -24 0
-8 -12 245 0
-10 8 244 0
-8 -32 243 0
-31 8 242 0
241 -237 0
241 -238 0
241 -239 0
241 -60 0
241 -57 0
241 -51 0
241 -43 0
241 -240 0
241 -21 0
241 -20 0
241 -15 0
-8 -13 240 0
-9 8 239 0
-8 -23 238 0
-22 8 237 0
236 8 0
236 6 0
236 5 0
236 7 0
-5 -6 -7 -8 -234 235 0
234 -83 0
234 -196 0
234 -215 0
234 -233 0
-232 -218 233 0
232 -223 0
232 -224 0
232 -225 0
232 -230 0
232 -231 0
-82 -81 -80 -79 -190 231 0
-82 -81 -80 -79 -229 -173 230 0
229 -226 0
229 -227 0
229 -228 0
-82 -81 -80 -79 -147 228 0
-82 -81 -80 -79 -190 -109 227 0
-82 -81 -80 -79 -157 -164 226 0
-82 -81 -80 -79 -147 -173 225 0
-82 -81 -80 -79 -157 -181 224 0
-82 -81 -80 -79 -181 -222 223 0
222 -219 0
222 -220 0
222 -221 0
-82 -81 -80 -79 -157 221 0
-82 -81 -80 -79 -147 -152 220 0
-82 -81 -80 -79 -190 -130 219 0
218 -110 0
218 -131 0
218 -216 0
218 -217 0
218 -136 0
-82 -81 -80 -79 -198 -99 217 0
-82 -81 -80 -79 -160 -120 216 0
-214 -200 215 0
214 -205 0
214 -210 0
214 -211 0
214 -212 0
214 -213 0
-82 -81 -80 -79 -181 213 0
-82 -81 -80 -79 -190 -120 212 0
-82 -81 -80 -79 -164 -173 211 0
-82 -81 -80 -79 -190 -209 210 0
209 -206 0
209 -207 0
209 -208 0
-82 -81 -80 -79 -120 208 0
-82 -81 -80 -79 -164 -99 207 0
-82 -81 -80 -79 -181 -135 206 0
-82 -81 -80 -79 -173 -204 205 0
204 -201 0
204 -202 0
204 -203 0
-82 -81 -80 -79 -164 203 0
-82 -81 -80 -79 -147 -120 202 0
-82 -81 -80 -79 -109 -181 201 0
200 -197 0
200 -199 0
200 -153 0
200 -158 0
200 -159 0
-82 -81 -80 -79 -152 -198 199 0
198 -166 0
198 -167 0
198 -168 0
-82 -81 -80 -79 -157 -137 197 0
-195 -169 196 0
195 -182 0
195 -191 0
195 -192 0
195 -193 0
195 -194 0
-82 -81 -80 -79 -173 194 0
-82 -81 -80 -79 -190 -99 193 0
-82 -81 -80 -79 -181 -152 192 0
-82 -81 -80 -79 -190 -186 191 0
190 -187 0
190 -188 0
190 -189 0
39 38 35 37 53 48 62 -145 -75 -74 -144 189 0
28 30 29 26 61 52 45 -142 -71 -70 -141 188 0
21 20 19 17 -66 51 60 -65 42 -139 -138 187 0
186 -183 0
186 -184 0
186 -185 0
-82 -81 -80 -79 -99 185 0
-82 -81 -80 -79 -173 -135 184 0
-82 -81 -80 -79 -152 -120 183 0
-82 -81 -80 -79 -181 -177 182 0
181 -178 0
181 -179 0
181 -180 0
39 38 37 53 49 48 62 -118 -75 -74 -117 180 0
28 30 29 61 52 46 45 -115 -114 -71 -70 179 0
21 20 19 -66 51 43 60 -65 42 -112 -111 178 0
177 -174 0
177 -175 0
177 -176 0
-82 -81 -80 -79 -152 176 0
-82 -81 -80 -79 -157 -99 175 0
-82 -81 -80 -79 -173 -130 174 0
173 -170 0
173 -171 0
173 -172 0
38 37 53 56 49 48 62 -96 -75 -74 -95 172 0
28 29 55 61 52 46 45 -92 -71 -70 -91 171 0
20 19 -66 54 51 43 60 -65 42 -87 -86 170 0
169 -148 0
169 -165 0
169 -166 0
169 -167 0
169 -168 0
-82 -81 -80 -79 -109 168 0
-82 -81 -80 -79 -147 -135 167 0
-82 -81 -80 -79 -164 -130 166 0
-82 -81 -80 -79 -164 -160 165 0
164 -161 0
164 -162 0
164 -163 0
38 37 36 53 56 49 48 -118 -107 -106 -117 163 0
28 29 27 55 52 -104 46 45 -103 -115 -114 162 0
-101 20 19 18 54 51 43 -100 42 -112 -111 161 0
160 -153 0
160 -158 0
160 -159 0
-82 -81 -80 -79 -130 159 0
-82 -81 -80 -79 -157 -135 158 0
157 -154 0
157 -155 0
157 -156 0
38 35 37 36 53 56 48 -128 -145 -127 -144 156 0
28 29 27 26 55 52 45 -142 -125 -124 -141 155 0
20 19 18 17 54 51 42 -122 -139 -138 -121 154 0
-82 -81 -80 -79 -109 -152 153 0
152 -149 0
152 -150 0
152 -151 0
39 37 36 53 50 49 48 -128 -96 -127 -95 151 0
28 30 27 52 46 45 47 -92 -125 -124 -91 150 0
21 19 18 51 43 44 42 -122 -87 -121 -86 149 0
-82 -81 -80 -79 -147 -137 148 0
147 -140 0
147 -143 0
147 -146 0
39 38 35 37 36 53 48 -145 -144 -107 -106 146 0
145 41 0
145 5 0
144 40 0
144 -5 0
28 30 29 27 26 52 -104 45 -103 -142 -141 143 0
142 32 0
142 5 0
141 31 0
141 -5 0
21 -101 20 19 18 17 51 -100 42 -139 -138 140 0
139 23 0
139 5 0
138 22 0
138 -5 0
137 -110 0
137 -131 0
137 -136 0
-82 -81 -80 -79 -135 136 0
135 -132 0
135 -133 0
135 -134 0
39 38 36 34 49 48 59 -97 -76 -73 -94 134 0
25 30 29 27 46 45 58 -69 -68 -90 -89 133 0
21 20 18 16 43 57 42 -64 -63 -85 -84 132 0
-82 -81 -80 -79 -130 -120 131 0
130 -123 0
130 -126 0
130 -129 0
39 38 36 53 49 48 59 -128 -76 -127 -73 129 0
128 14 0
128 6 0
127 11 0
127 -6 0
30 29 27 52 46 45 58 -125 -124 -69 -68 126 0
125 12 0
125 6 0
124 10 0
124 -6 0
21 20 18 51 43 57 42 -122 -64 -63 -121 123 0
122 9 0
122 -6 0
121 6 0
121 13 0
120 -113 0
120 -116 0
120 -119 0
39 37 36 34 50 49 48 -97 -118 -117 -94 119 0
118 41 0
118 6 0
117 40 0
117 -6 0
25 28 30 27 46 45 47 -115 -114 -90 -89 116 0
115 32 0
115 6 0
114 31 0
114 -6 0
21 19 18 16 43 44 42 -112 -111 -85 -84 113 0
112 22 0
112 -6 0
111 23 0
111 6 0
-82 -81 -80 -79 -109 -99 110 0
109 -102 0
109 -105 0
109 -108 0
39 36 53 50 49 48 59 -76 -107 -106 -73 108 0
107 14 0
107 7 0
106 11 0
106 -7 0
30 27 52 -104 46 45 58 -103 47 -69 -68 105 0
104 10 0
104 -7 0
103 12 0
103 7 0
21 -101 18 51 43 -100 57 44 42 -64 -63 102 0
101 7 0
101 13 0
100 9 0
100 -7 0
99 -88 0
99 -93 0
99 -98 0
39 38 37 36 34 49 48 -97 -96 -95 -94 98 0
97 14 0
97 5 0
96 41 0
96 7 0
95 40 0
95 -7 0
94 11 0
94 -5 0
25 28 30 29 27 46 45 -92 -91 -90 -89 93 0
92 32 0
92 7 0
91 31 0
91 -7 0
90 12 0
90 5 0
89 10 0
89 -5 0
21 20 19 18 16 43 42 -87 -86 -85 -84 88 0
87 23 0
87 7 0
86 22 0
86 -7 0
85 5 0
85 13 0
84 9 0
84 -5 0
-82 -81 -80 -79 -78 83 0
82 10 0
82 -9 0
81 11 0
81 -10 0
80 13 0
80 -12 0
79 12 0
79 -14 0
78 -67 0
78 -72 0
78 -77 0
39 38 33 53 49 62 59 -76 -75 -74 -73 77 0
76 41 0
76 8 0
75 14 0
75 8 0
74 11 0
74 -8 0
73 40 0
73 -8 0
24 30 29 61 52 46 58 -71 -70 -69 -68 72 0
71 12 0
71 8 0
70 10 0
70 -8 0
69 32 0
69 8 0
68 31 0
68 -8 0
21 20 -66 15 51 43 60 57 -65 -64 -63 67 0
66 8 0
66 13 0
65 9 0
65 -8 0
64 8 0
64 23 0
63 22 0
63 -8 0
